1949.41 0
0 11 89 75 74 73 24 0
0 51 69 22 18 92 90 0
0 14 26 85 46 58 34 48 47 31 33 40 39 41 28 67 19 68 84 0
0 65 60 32 49 13 53 20 99 17 0
0 25 59 35 63 0
0 23 97 93 96 91 94 10 5 9 6 3 4 50 21 100 81 44 0
0 12 15 86 82 87 42 66 64 0
0 52 55 76 79 83 78 77 71 72 70 0
0 27 88 98 16 7 8 2 1 95 0
0 43 38 56 80 61 0
0 57 62 45 54 37 36 30 29 0